     Program PWSCF v.5.0.2 (svn rev. 9392) starts on 21Jan2015 at  9:21:19

     Current dimensions of program PWSCF are:
     Max number of different atomic species (ntypx) = 10
     Max number of k-points (npk) =  40000
     Max angular momentum in pseudopotentials (lmaxx) =  3
     Waiting for input...
     Reading input from standard input
               file al_ppot.gon: wavefunction(s)  nX renormalized

     Subspace diagonalization in iterative solution of the eigenvalue problem:
     a serial algorithm will be used

     bravais-lattice index     =            0
     lattice parameter (alat)  =       5.8805  a.u.
     unit-cell volume          =     281.9546 (a.u.)^3
     number of atoms/cell      =            4
     number of atomic types    =            2
     number of electrons       =        16.00
     number of Kohn-Sham states=           16
     kinetic-energy cutoff     =     120.0000  Ry
     charge density cutoff     =     480.0000  Ry
     convergence threshold     =      1.0E-09
     mixing beta               =       0.4500
     number of iterations used =            8  plain     mixing
     Exchange-correlation      = PBE ( 1 4 3 4 0)
     EXX-fraction              =        0.00

     celldm(1)=   5.880500  celldm(2)=   0.000000  celldm(3)=   0.000000
     celldm(4)=   0.000000  celldm(5)=   0.000000  celldm(6)=   0.000000

     crystal axes: (cart. coord. in units of alat)
               a(1) = (   0.500000   0.866000   0.000000 )
               a(2) = (   0.500000  -0.866000   0.000000 )
               a(3) = (   0.000000   0.000000   1.601100 )

     reciprocal axes: (cart. coord. in units 2 pi/alat)
               b(1) = (  1.000000  0.577367 -0.000000 )
               b(2) = (  1.000000 -0.577367 -0.000000 )
               b(3) = ( -0.000000 -0.000000  0.624571 )

     PseudoPot. # 1 for Al read from file:
     ./al_ppot.gon
     MD5 check sum: 81ade52a431bb9be87ce77550c80d5b7
     Pseudo is Norm-conserving, Zval =  3.0
     Generated by old ld1 code (numerical format)
     Using radial grid of 1000 points,  2 beta functions with:
                l(1) =   1
                l(2) =   2

     PseudoPot. # 2 for N  read from file:
     ./n_ppot.gon
     MD5 check sum: fd4aebc5fe09b1393ef627d4ee6cddd6
     Pseudo is Norm-conserving, Zval =  5.0
     Generated by old ld1 code (numerical format)
     Using radial grid of 1000 points,  2 beta functions with:
                l(1) =   0
                l(2) =   1

     atomic species   valence    mass     pseudopotential
        Al             3.00    26.98150     Al( 1.00)
        N              5.00    14.00700     N ( 1.00)

     No symmetry found

   Cartesian axes

     site n.     atom                  positions (alat units)
         1           Al  tau(   1) = (   0.5000000  -0.2886724   0.0000000  )
         2           Al  tau(   2) = (   0.5000000   0.2886724   0.8005500  )
         3           N   tau(   3) = (   0.5000000  -0.2886724   0.6114121  )
         4           N   tau(   4) = (   0.5000000   0.2886724   1.4119621  )

     number of k points=     1
                       cart. coord. in units 2pi/alat
        k(    1) = (   0.0000000   0.0000000   0.0000000), wk =   2.0000000

     Largest allocated arrays     est. size (Mb)     dimensions
     Largest temporary arrays     est. size (Mb)     dimensions

     Initial potential from superposition of free atoms

     starting charge   15.99750, renormalised to   16.00000
     Starting wfc are   26 randomized atomic wfcs

     Self-consistent Calculation

     iteration #  1     ecut=   120.00 Ry     beta=0.45
     Davidson diagonalization with overlap
     ethr =  1.00E-02,  avg # of iterations =  4.0

     total energy              =     -47.22765109 Ry
     Harris-Foulkes estimate   =     -48.11246732 Ry
     estimated scf accuracy    <       1.68491411 Ry

[...]

     total energy              =     -47.60712724 Ry
     Harris-Foulkes estimate   =     -47.60712724 Ry
     estimated scf accuracy    <          1.7E-09 Ry

     iteration # 11     ecut=   120.00 Ry     beta=0.45
     Davidson diagonalization with overlap
     ethr =  1.03E-11,  avg # of iterations =  2.0

     End of self-consistent calculation

          k = 0.0000 0.0000 0.0000 (  6303 PWs)   bands (ev):

    -6.9072  -4.4332   1.7721   7.6446   7.6450   8.3888   8.3891   8.5274
    12.4980  14.8513  18.9049  18.9906  18.9912  21.0144  21.1009  21.1011

     highest occupied, lowest unoccupied level (ev):     8.5274   12.4980

!    total energy              =     -47.60712724 Ry
     Harris-Foulkes estimate   =     -47.60712724 Ry
     estimated scf accuracy    <          2.2E-11 Ry

     The total energy is the sum of the following terms:

     one-electron contribution =      -2.80245724 Ry
     hartree contribution      =      12.96205425 Ry
     xc contribution           =     -14.27223951 Ry
     ewald contribution        =     -43.49448474 Ry

     convergence has been achieved in  11 iterations

 Energies determined by pw2casino tool
 Kinetic energy      18.986688692433230       au  =     37.973377384866460       Ry
 Local energy       -20.800974705141137       au  =    -41.601949410282273       Ry
 Non-Local energy   0.41305739390700957       au  =    0.82611478781401915       Ry
 Ewald energy       -21.747242370241693       au  =    -43.494484740483387       Ry
 xc contribution    -7.1361197538915961       au  =    -14.272239507783192       Ry
 hartree energy      6.4810271245444202       au  =     12.962054249088840       Ry
 Total energy       -23.803563618389767       au  =    -47.607127236779533       Ry

Writing file aln.bwfn.data for program CASINO.

Blip grid: 24x24x36

 Transformed complex orbital k=1, spin=1, band=1 on node 0
 Transformed complex orbital k=1, spin=1, band=2 on node 0
 Transformed complex orbital k=1, spin=1, band=3 on node 0
 Transformed complex orbital k=1, spin=1, band=4 on node 0
 Transformed complex orbital k=1, spin=1, band=5 on node 0
 Transformed complex orbital k=1, spin=1, band=6 on node 0
 Transformed complex orbital k=1, spin=1, band=7 on node 0
 Transformed complex orbital k=1, spin=1, band=8 on node 0
 Transformed complex orbital k=1, spin=1, band=9 on node 0
 Transformed complex orbital k=1, spin=1, band=10 on node 0
 Transformed complex orbital k=1, spin=1, band=11 on node 0
 Transformed complex orbital k=1, spin=1, band=12 on node 0
 Transformed complex orbital k=1, spin=1, band=13 on node 0
 Transformed complex orbital k=1, spin=1, band=14 on node 0
 Transformed complex orbital k=1, spin=1, band=15 on node 0
 Transformed complex orbital k=1, spin=1, band=16 on node 0

     Writing output data file aln.save

     General routines

     Parallel routines

   This run was terminated on:   9:21:41  21Jan2015

   JOB DONE.